i7

VEHICLE
NUMBER     CAPACITY
  6         100

CUSTOMER
CUST NO.  XCOORD.   YCOORD.    DEMAND   READY TIME  DUE DATE   SERVICE   TIME
 
    0       1          6          0           0        100          0   
    1       5          6          7           5         10          0   
    2       4          1         12           7          9          0   
    3       7          8         15           7          9          0   
    4       7          4          9           1          4          0   
    5       3          0          4           2         10          0   
    6       2          4          1           6          7          0   
